(declare-const |y':29| Int)
(declare-const havoc Int)
(declare-const |x':28| Int)
(declare-const |K:34| Int)
(assert (and (<= (- havoc) 0)
               (or (not (and (<= (- |K:34|) 0) (<= |K:34| 0)))
                     (= (+ |x':28| (- |K:34|) (- havoc)) 0))
               (or (not (<= (+ (- |K:34|) 1) 0))
                     (= (+ |x':28| (- |K:34|) (- havoc)) 0))
               (or (not (and (<= (- |K:34|) 0) (<= |K:34| 0)))
                     (= (+ |y':29| (- |K:34|) (- havoc)) 0))
               (or (not (<= (+ (- |K:34|) 1) 0))
                     (= (+ |y':29| (- |K:34|) (- havoc)) 0))
               (or (and (= |K:34| 0) (= (+ (- |y':29|) havoc) 0)
                          (= (+ (- |x':28|) havoc) 0))
                     (and (<= (+ (- |K:34|) 1) 0) (<= (+ havoc -1023) 0)
                            (<= (- havoc) 0) (= (+ (- |y':29|) |x':28|) 0)
                            (<= (+ |y':29| -1024) 0) (<= (+ (- |y':29|) 1) 0)))
               (<= (- |K:34|) 0) (<= (- |y':29|) 0) (<= (- |x':28|) 0)
               (= (+ |y':29| (- |x':28|)) 0) (<= (+ (- |x':28|) 1024) 0)
               (not (= (+ (- |y':29|) |x':28|) 0))))
(check-sat)
